NAME : XML100_3156_08
DIMENSION : 101
NB_CLUSTERS : 7
CLUSTERING_ALG : KMedoids
CLUSTERING_PARAMS : k(6)
CLUSTERS
1 0
2 8 12 16 17 18 19 25 26 33 34 35 37 44 46 49 55 58 62 67 86 87 97
3 3 4 10 27 28 32 42 45 59 76 98
4 13 47 48 52 53 63 65 68 77 80 83 85 90 95 96 99 100
5 5 6 15 21 23 24 29 38 43 51 57 66 71 78 88
6 7 11 14 22 31 36 40 54 56 61 69 74 81 82 89 93
7 1 2 9 20 30 39 41 50 60 64 70 72 73 75 79 84 91 92 94
EOF